Route #1: 34 46 52 27 4
Route #2: 30 48 5 29 45 8 35
Route #3: 53 11 59 14 19
Route #4: 54 13 57 15 37 20 60 36 47
Route #5: 21 61 28 62 2
Route #6: 7 58 38 10 31 39
Route #7: 9 25 55 50 18 24 49
Route #8: 22 64 42 41 56 51 17
Route #9: 26 12 40 32 44 3
Route #10: 16 63 23 43 1 33 6
Cost 848